
Gurobi 10.0.1 (linux64) logging started Sun Nov 26 15:41:10 2023

Set parameter LogFile to value "ArtificialInstance/ExperimentV2/S2T4K1/AdSp/gurobi91.txt"
Gurobi Optimizer version 10.0.1 build v10.0.1rc0 (linux64)

CPU model: AMD EPYC 7H12 64-Core Processor, instruction set [SSE2|AVX|AVX2]
Thread count: 128 physical cores, 128 logical processors, using up to 32 threads

Academic license 656792 - for non-commercial use only - registered to b.___@student.vu.nl
Optimize a model with 2761 rows, 2643 columns and 9963 nonzeros
Model fingerprint: 0x153923c2
Variable types: 0 continuous, 2643 integer (2643 binary)
Coefficient statistics:
  Matrix range     [1e+00, 1e+00]
  Objective range  [2e+00, 2e+01]
  Bounds range     [1e+00, 1e+00]
  RHS range        [1e+00, 1e+00]
Presolve removed 267 rows and 249 columns
Presolve time: 0.04s
Presolved: 2494 rows, 2394 columns, 9218 nonzeros
Variable types: 0 continuous, 2394 integer (2394 binary)
Found heuristic solution: objective 483.7695937

Root relaxation: objective 4.386678e+01, 1497 iterations, 0.04 seconds (0.03 work units)

    Nodes    |    Current Node    |     Objective Bounds      |     Work
 Expl Unexpl |  Obj  Depth IntInf | Incumbent    BestBd   Gap | It/Node Time

     0     0   43.86678    0  161  483.76959   43.86678  90.9%     -    0s
H    0     0                      88.1565977   43.86678  50.2%     -    0s
H    0     0                      69.0335681   43.86678  36.5%     -    0s
H    0     0                      44.5973114   43.86678  1.64%     -    0s
     0     0     cutoff    0        44.59731   44.59731  0.00%     -    0s

Cutting planes:
  Gomory: 2
  Zero half: 1

Explored 1 nodes (1932 simplex iterations) in 0.14 seconds (0.09 work units)
Thread count was 32 (of 128 available processors)

Solution count 4: 44.5973 69.0336 88.1566 483.77 

Optimal solution found (tolerance 1.00e-04)
Best objective 4.459731142384e+01, best bound 4.459731142384e+01, gap 0.0000%
